Set parameter TokenServer to value "license1.computecanada.ca"
Read LP format model from file Data/sens-data/complex/full-model/cw1-cc5-cv10-gam95-complex-p2.lp
Reading time = 0.63 seconds
: 971 rows, 8999 columns, 884600 nonzeros
Gurobi Optimizer version 9.5.0 build v9.5.0rc5 (linux64)
Thread count: 64 physical cores, 64 logical processors, using up to 32 threads
Optimize a model with 971 rows, 8999 columns and 884600 nonzeros
Model fingerprint: 0xd676578e
Coefficient statistics:
  Matrix range     [9e-03, 9e+01]
  Objective range  [2e+02, 9e+02]
  Bounds range     [0e+00, 0e+00]
  RHS range        [1e-06, 2e+00]

Concurrent LP optimizer: primal simplex, dual simplex, and barrier
Showing barrier log only...

Presolve removed 146 rows and 1765 columns
Presolve time: 0.34s
Presolved: 825 rows, 7234 columns, 473471 nonzeros

Ordering time: 0.00s

Barrier statistics:
 AA' NZ     : 2.882e+05
 Factor NZ  : 3.197e+05 (roughly 6 MB of memory)
 Factor Ops : 1.676e+08 (less than 1 second per iteration)
 Threads    : 30

                  Objective                Residual
Iter       Primal          Dual         Primal    Dual     Compl     Time
   0  -1.18692802e+06 -1.74202743e+04  4.68e+03 6.18e+01  1.85e+03     1s
   1  -7.20566443e+05 -3.97418105e+04  2.82e+03 1.69e+02  1.14e+03     2s
   2  -1.49195430e+05 -4.81836224e+04  5.33e+02 4.58e+01  2.22e+02     3s
   3  -3.92920344e+04 -3.93137077e+04  9.02e+01 5.35e+00  3.94e+01     4s
   4  -2.60588238e+04 -3.10871011e+04  3.67e+01 1.43e+00  1.64e+01     5s
   5  -2.24656900e+04 -2.71276031e+04  2.21e+01 7.51e-01  9.91e+00     5s
   6  -1.88548662e+04 -2.30500162e+04  7.45e+00 2.70e-01  3.62e+00     6s
   7  -1.75255985e+04 -2.07246929e+04  2.06e+00 1.08e-01  1.22e+00     7s
   8  -1.71877123e+04 -1.90019003e+04  6.81e-01 3.22e-02  4.57e-01     8s
   9  -1.70717445e+04 -1.83441086e+04  1.37e-01 1.69e-02  1.96e-01    11s
  10  -1.70849383e+04 -1.78426748e+04  1.72e-02 8.94e-03  9.80e-02    15s
  11  -1.71179803e+04 -1.77760520e+04  1.51e-02 7.45e-03  8.49e-02    16s
  12  -1.72240515e+04 -1.76466200e+04  8.47e-03 4.68e-03  5.39e-02    17s
  13  -1.72140175e+04 -1.75590948e+04  7.35e-03 3.88e-03  4.39e-02    18s
  14  -1.72361663e+04 -1.74749018e+04  4.00e-03 2.63e-03  3.02e-02    18s
  15  -1.72497405e+04 -1.74022449e+04  2.41e-03 1.60e-03  1.92e-02    19s
  16  -1.72567946e+04 -1.73460039e+04  1.28e-03 8.60e-04  1.12e-02    20s
  17  -1.72602882e+04 -1.73138666e+04  8.93e-04 4.73e-04  6.73e-03    21s
  18  -1.72641076e+04 -1.73010532e+04  3.82e-04 3.25e-04  4.62e-03    22s
  19  -1.72671052e+04 -1.72861436e+04  1.56e-04 1.63e-04  2.38e-03    22s
  20  -1.72683005e+04 -1.72797376e+04  9.84e-05 8.60e-05  1.43e-03    23s
  21  -1.72698183e+04 -1.72769778e+04  5.84e-05 4.91e-05  8.94e-04    24s
  22  -1.72711692e+04 -1.72754875e+04  3.04e-05 2.91e-05  5.39e-04    25s
  23  -1.72718585e+04 -1.72746826e+04  1.86e-05 1.80e-05  3.52e-04    26s
  24  -1.72721313e+04 -1.72741615e+04  1.47e-05 1.01e-05  2.53e-04    26s
  25  -1.72725281e+04 -1.72739974e+04  1.02e-05 7.05e-06  1.83e-04    27s
  26  -1.72729907e+04 -1.72738524e+04  5.32e-06 4.17e-06  1.08e-04    28s
  27  -1.72732220e+04 -1.72737365e+04  3.06e-06 2.25e-06  6.42e-05    29s
  28  -1.72733733e+04 -1.72736813e+04  1.69e-06 1.19e-06  3.84e-05    30s
  29  -1.72734392e+04 -1.72736574e+04  1.16e-06 7.61e-07  2.72e-05    31s
  30  -1.72735015e+04 -1.72736384e+04  6.50e-07 4.74e-07  1.71e-05    31s
  31  -1.72735494e+04 -1.72736277e+04  2.87e-07 3.27e-07  9.76e-06    32s
  32  -1.72735718e+04 -1.72736175e+04  1.40e-07 1.94e-07  5.70e-06    33s
  33  -1.72735837e+04 -1.72736109e+04  6.21e-08 1.02e-07  3.39e-06    34s
  34  -1.72735903e+04 -1.72736082e+04  3.52e-08 6.53e-08  2.23e-06    35s
  35  -1.72735946e+04 -1.72736060e+04  1.88e-08 3.54e-08  1.42e-06    36s
  36  -1.72735977e+04 -1.72736051e+04  1.17e-08 2.38e-08  9.28e-07    36s
  37  -1.72736001e+04 -1.72736042e+04  1.37e-08 1.19e-08  5.13e-07    37s
  38  -1.72736013e+04 -1.72736036e+04  2.16e-08 6.48e-09  2.86e-07    38s
  39  -1.72736019e+04 -1.72736033e+04  2.99e-08 3.03e-09  1.63e-07    39s
  40  -1.72736023e+04 -1.72736031e+04  2.53e-08 1.48e-09  9.25e-08    40s
  41  -1.72736025e+04 -1.72736030e+04  2.59e-08 4.80e-10  4.74e-08    41s
  42  -1.72736028e+04 -1.72736029e+04  2.45e-08 0.00e+00  7.54e-09    42s

Barrier solved model in 42 iterations and 41.57 seconds (0.67 work units)
Optimal objective -1.72736028e+04

Crossover log...

     127 DPushes remaining with DInf 0.0000000e+00                42s
       0 DPushes remaining with DInf 0.0000000e+00                44s

      34 PPushes remaining with PInf 2.5621491e-05                44s
       0 PPushes remaining with PInf 1.6393033e-02                45s

  Push phase complete: Pinf 1.6393033e-02, Dinf 2.0608552e-02     45s

Iteration    Objective       Primal Inf.    Dual Inf.      Time
     160   -1.7273603e+04   0.000000e+00   2.060855e-02     45s
     224   -1.7273603e+04   0.000000e+00   0.000000e+00     48s

Solved with barrier
Solved in 224 iterations and 47.91 seconds (0.95 work units)
Optimal objective -1.727360288e+04
